40
    37    35    80    69    88    52    35    57    22    74    68    23    49    21    90   100     6    66    91    24    59    35    36    35   100     4    71    76    51     8    18    93    63    29    80    34    12     7    36    51
     2     6     5     5     6     9    10     2     5     1     2     8     5     1    10     5     5     9     8     4    10     5    10     7     2     2     6     7     5     1     9    10     9     8     3    10     2     4    10     4
   833   940  1046  1433  1128   829  1582  1431  1398  1217  1180  1109  1076   994  1096   921  1488  1278  1226   903  1028  1217  1018  1047  1027  1341  1586  1273   920   958  1066  1013   953  1499  1494  1561  1308  1536   984   894
